
Gurobi 12.0.2 (win64) logging started Wed Jun  4 16:57:52 2025

Set parameter LogFile to value "C:\Ioana\_uni\honours\slp\algorithm\Main_files\results\others\fatty_acids\Task_016_Sample002_irr_gurobi.log"
Gurobi Optimizer version 12.0.2 build v12.0.2rc0 (win64 - Windows 11.0 (26100.2))

CPU model: Intel(R) Core(TM) Ultra 5 125H, instruction set [SSE2|AVX|AVX2]
Thread count: 14 physical cores, 18 logical processors, using up to 18 threads

Non-default parameters:
TimeLimit  2200

Optimize a model with 47226 rows, 34498 columns and 146685 nonzeros
Model fingerprint: 0x0a148f4e
Variable types: 17253 continuous, 17245 integer (17245 binary)
Coefficient statistics:
  Matrix range     [1e-04, 8e+04]
  Objective range  [3e-05, 9e-01]
  Bounds range     [1e+00, 1e+03]
  RHS range        [1e+00, 1e+00]
Presolve removed 30779 rows and 21544 columns
Presolve time: 0.51s
Presolved: 16447 rows, 12954 columns, 54670 nonzeros
Variable types: 6409 continuous, 6545 integer (6545 binary)
Found heuristic solution: objective 23.0328984

Root relaxation: objective 1.041147e+00, 12 iterations, 0.01 seconds (0.00 work units)

    Nodes    |    Current Node    |     Objective Bounds      |     Work
 Expl Unexpl |  Obj  Depth IntInf | Incumbent    BestBd   Gap | It/Node Time

     0     0    1.04115    0    1   23.03290    1.04115  95.5%     -    0s
H    0     0                       1.0602845    1.04115  1.80%     -    0s
     0     0    1.04115    0    1    1.06028    1.04115  1.80%     -    0s

Explored 1 nodes (12 simplex iterations) in 0.64 seconds (0.46 work units)
Thread count was 18 (of 18 available processors)

Solution count 2: 1.06028 23.0329 

Optimal solution found (tolerance 1.00e-04)
Best objective 1.060284496808e+00, best bound 1.060284496808e+00, gap 0.0000%

Gurobi 12.0.2 (win64) logging started Thu Jun  5 15:34:12 2025

Set parameter LogFile to value "C:\Ioana\_uni\honours\slp\algorithm\Main_files\results\others\fatty_acids\Task_016_Sample002_irr_gurobi.log"
Gurobi Optimizer version 12.0.2 build v12.0.2rc0 (win64 - Windows 11.0 (26100.2))

CPU model: Intel(R) Core(TM) Ultra 5 125H, instruction set [SSE2|AVX|AVX2]
Thread count: 14 physical cores, 18 logical processors, using up to 18 threads

Non-default parameters:
TimeLimit  2200

Optimize a model with 47226 rows, 34498 columns and 146685 nonzeros
Model fingerprint: 0x0a148f4e
Variable types: 17253 continuous, 17245 integer (17245 binary)
Coefficient statistics:
  Matrix range     [1e-04, 8e+04]
  Objective range  [3e-05, 9e-01]
  Bounds range     [1e+00, 1e+03]
  RHS range        [1e+00, 1e+00]
Presolve removed 30779 rows and 21544 columns
Presolve time: 0.49s
Presolved: 16447 rows, 12954 columns, 54670 nonzeros
Variable types: 6409 continuous, 6545 integer (6545 binary)
Found heuristic solution: objective 23.0328984

Root relaxation: objective 1.041147e+00, 12 iterations, 0.02 seconds (0.00 work units)

    Nodes    |    Current Node    |     Objective Bounds      |     Work
 Expl Unexpl |  Obj  Depth IntInf | Incumbent    BestBd   Gap | It/Node Time

     0     0    1.04115    0    1   23.03290    1.04115  95.5%     -    0s
H    0     0                       1.0602845    1.04115  1.80%     -    0s
     0     0    1.04115    0    1    1.06028    1.04115  1.80%     -    0s

Explored 1 nodes (12 simplex iterations) in 0.67 seconds (0.46 work units)
Thread count was 18 (of 18 available processors)

Solution count 2: 1.06028 23.0329 

Optimal solution found (tolerance 1.00e-04)
Best objective 1.060284496808e+00, best bound 1.060284496808e+00, gap 0.0000%
